GLPSOL--GLPK LP/MIP Solver 5.0
Parameter(s) specified in the command line:
 --lp ../modeles/5_149.lp --log 5_149.log
Reading problem data from '../modeles/5_149.lp'...
766 rows, 1500 columns, 5240 non-zeros
745 integer variables, all of which are binary
2277 lines were read
GLPK Integer Optimizer 5.0
766 rows, 1500 columns, 5240 non-zeros
745 integer variables, all of which are binary
Preprocessing...
730 constraint coefficient(s) were reduced
766 rows, 1495 columns, 5235 non-zeros
745 integer variables, all of which are binary
Scaling...
 A: min|aij| =  1.802e-04  max|aij| =  4.000e+00  ratio =  2.220e+04
GM: min|aij| =  8.192e-02  max|aij| =  1.221e+01  ratio =  1.490e+02
EQ: min|aij| =  6.711e-03  max|aij| =  1.000e+00  ratio =  1.490e+02
2N: min|aij| =  3.906e-03  max|aij| =  1.741e+00  ratio =  4.456e+02
Constructing initial basis...
Size of triangular part is 766
Solving LP relaxation...
GLPK Simplex Optimizer 5.0
766 rows, 1495 columns, 5235 non-zeros
      0: obj =   1.000000000e+01 inf =   2.795e+02 (11)
     64: obj =   4.995720721e-01 inf =   0.000e+00 (0)
*   183: obj =  -2.235540861e+00 inf =   2.950e-15 (0)
OPTIMAL LP SOLUTION FOUND
Integer optimization begins...
Long-step dual simplex will be used
+   183: mip =     not found yet >=              -inf        (1; 0)
+   188: >>>>>  -2.235540861e+00 >=  -2.235540861e+00 < 0.1% (3; 0)
+   188: mip =  -2.235540861e+00 >=     tree is empty   0.0% (0; 5)
INTEGER OPTIMAL SOLUTION FOUND
Time used:   0.0 secs
Memory used: 2.2 Mb (2287673 bytes)
